50
7439

218 919
855 882
382 569
28 211
580 980
510 49
636 878
732 624
637 666
266 483
811 14
849 321
944 351
992 421
239 940
54 429
625 881
554 303
302 358
185 75
262 312
848 394
746 781
816 209
189 563
274 364
961 44
789 204
230 2
841 266
726 895
396 577
639 738
736 861
987 43
666 458
932 575
537 927
888 917
443 804
63 475
289 665
172 535
720 264
667 568
818 730
341 243
805 936
5 857
95 893
